
******************************************************************************
This program contains Ipopt, a library for large-scale nonlinear optimization.
 Ipopt is released as open source code under the Eclipse Public License (EPL).
         For more information visit http://projects.coin-or.org/Ipopt

This version of Ipopt was compiled from source code available at
    https://github.com/IDAES/Ipopt as part of the Institute for the Design of
    Advanced Energy Systems Process Systems Engineering Framework (IDAES PSE
    Framework) Copyright (c) 2018-2019. See https://github.com/IDAES/idaes-pse.

This version of Ipopt was compiled using HSL, a collection of Fortran codes
    for large-scale scientific computation.  All technical papers, sales and
    publicity material resulting from use of the HSL codes within IPOPT must
    contain the following acknowledgement:
        HSL, a collection of Fortran codes for large-scale scientific
        computation. See http://www.hsl.rl.ac.uk.
******************************************************************************

This is Ipopt version 3.13.2, running with linear solver ma27.

Number of nonzeros in equality constraint Jacobian...:      928
Number of nonzeros in inequality constraint Jacobian.:        0
Number of nonzeros in Lagrangian Hessian.............:      806

Total number of variables............................:      403
                     variables with only lower bounds:      124
                variables with lower and upper bounds:      217
                     variables with only upper bounds:        0
Total number of equality constraints.................:      402
Total number of inequality constraints...............:        0
        inequality constraints with only lower bounds:        0
   inequality constraints with lower and upper bounds:        0
        inequality constraints with only upper bounds:        0

iter    objective    inf_pr   inf_du lg(mu)  ||d||  lg(rg) alpha_du alpha_pr  ls
   0  0.0000000e+00 1.41e+00 1.60e-14  -1.0 0.00e+00    -  0.00e+00 0.00e+00   0
   1  4.7794095e-02 1.07e+00 6.48e+03  -1.0 7.77e+04    -  4.80e-01 2.55e-01h  2
   2  1.7994730e-01 7.41e-01 2.38e+04  -1.0 5.29e+04    -  5.92e-01 3.28e-01h  1
   3  1.8449364e-01 7.33e-01 2.36e+04  -1.0 1.62e+05    -  5.98e-01 1.20e-02h  1
   4  1.6828930e+00 5.33e-01 1.64e+04  -1.0 2.23e+05    -  5.96e-01 3.01e-01h  1
   5  1.7229879e+01 1.10e-01 2.01e+03  -1.0 1.70e+05    -  7.65e-01 9.90e-01h  1
   6  1.9796278e+01 6.72e-03 7.06e+01  -1.0 1.75e+04    -  9.67e-01 9.90e-01h  1
   7  1.9849285e+01 8.96e-05 7.30e+03  -1.0 3.49e+02    -  9.65e-01 9.90e-01h  1
   8  1.9876162e+01 8.40e-05 2.25e+07  -1.0 2.88e+03    -  8.40e-01 6.19e-02f  5
   9  2.0164524e+01 1.01e-05 1.47e+07  -1.0 1.92e+03    -  5.07e-01 9.90e-01H  1
iter    objective    inf_pr   inf_du lg(mu)  ||d||  lg(rg) alpha_du alpha_pr  ls
  10  2.0671600e+01 6.25e-06 6.48e+04  -1.0 3.35e+03    -  9.90e-01 9.90e-01H  1
  11  1.9845459e+01 7.24e-04 3.11e+09  -2.5 8.47e+03    -  9.97e-01 6.41e-01f  1
  12  1.9848603e+01 3.37e-06 7.75e+07  -2.5 2.17e+01    -  1.00e+00 9.97e-01h  1
  13  1.9847967e+01 9.53e-09 2.43e+10  -2.5 4.23e+00    -  1.00e+00 9.97e-01h  1
In iteration 13, 31 Slacks too small, adjusting variable bounds
  14  1.9847964e+01 2.77e-11 8.58e+12  -2.5 1.67e-02    -  1.00e+00 9.97e-01h  1
  15  1.9847964e+01 3.98e-12 8.40e-02  -2.5 4.73e-05    -  1.00e+00 1.00e+00h  1
  16  1.9847872e+01 1.37e-11 8.39e+12  -9.0 2.06e+01    -  1.00e+00 2.98e-02f  6
  17  1.9845000e+01 8.86e-12 1.72e+09  -9.0 1.91e+01    -  1.00e+00 1.00e+00F  1
  18  1.9845000e+01 3.96e-12 5.59e-07  -9.0 6.04e-06    -  1.00e+00 1.00e+00h  1

Number of Iterations....: 18

                                   (scaled)                 (unscaled)
Objective...............:   1.9844999617330853e+01    1.9844999617330853e+01
Dual infeasibility......:   5.5925920605659485e-07    5.5925920605659485e-07
Constraint violation....:   3.9550585029246577e-12    3.9550585029246577e-12
Complementarity.........:   9.0909189543481863e-10    9.0909189543481863e-10
Overall NLP error.......:   3.1254980934965194e-10    5.5925920605659485e-07


Number of objective function evaluations             = 40
Number of objective gradient evaluations             = 19
Number of equality constraint evaluations            = 40
Number of inequality constraint evaluations          = 0
Number of equality constraint Jacobian evaluations   = 19
Number of inequality constraint Jacobian evaluations = 0
Number of Lagrangian Hessian evaluations             = 18
Total CPU secs in IPOPT (w/o function evaluations)   =      0.040
Total CPU secs in NLP function evaluations           =      0.515

EXIT: Optimal Solution Found.
